NAME : 10_3_3_3_(30).dat
COMMENT : Henke, Speranza, Wäscher, 2015
TYPE : MCVRP
DIMENSION : 11
EDGE_WEIGHT_TYPE : DISTANCE_MATRIX
CAPACITY : 1000
VEHICLES : 3
PRODUCT TYPES : 3
COMPARTMENTS : 3
NODE_COORD_SECTION
1 50 50
2 57.56 56.88
3 56.25 91.63
4 55.57 33.29
5 54.25 83.27
6 4.68 37.09
7 60.02 19.75
8 11.85 30.28
9 13.48 22.7
10 85.6 54.02
11 65.51 75.69
DEMAND_SECTION
1 0 0 0
2 5 83 53
3 28 2 9
4 61 58 21
5 53 1 25
6 152 33 28
7 51 62 41
8 56 88 11
9 220 20 47
10 116 64 37
11 10 41 29
DEPOT_SECTION
1
EOF